<number of tasks>
89

<cycle time>
16

<task times>
1 1
2 2
3 3
4 4
5 5
6 6
7 7
8 8
9 9
10 10
11 1
12 2
13 3
14 4
15 5
16 6
17 7
18 8
19 9
20 10
21 1
22 2
23 3
24 4
25 5
26 6
27 7
28 8
29 9
30 10
31 1
32 2
33 3
34 4
35 5
36 6
37 7
38 8
39 9
40 10
41 1
42 2
43 3
44 4
45 5
46 6
47 7
48 8
49 9
50 10
51 1
52 2
53 3
54 4
55 5
56 6
57 7
58 8
59 9
60 10
61 1
62 2
63 3
64 4
65 5
66 6
67 7
68 8
69 9
70 10
71 1
72 2
73 3
74 4
75 5
76 6
77 7
78 8
79 9
80 10
81 1
82 2
83 3
84 4
85 5
86 6
87 7
88 8
89 9

<precedence relations>
1,2
2,3
3,4
4,5
4,6
4,7
4,8
4,9
5,10
6,11
7,12
8,18
9,18
10,14
11,12
12,13
13,14
14,15
14,16
15,17
16,54
17,18
18,19
18,20
19,22
20,21
20,28
21,54
22,23
23,24
24,25
25,26
25,27
25,29
26,37
27,33
28,29
29,31
30,54
31,32
32,33
33,34
34,35
35,36
35,37
36,38
37,38
38,39
39,40
39,41
39,42
39,43
40,44
41,53
42,53
43,45
44,52
45,46
46,47
47,48
47,49
49,50
50,51
51,52
52,53
53,68
53,69
53,70
53,71
54,55
55,56
56,57
57,58
57,59
57,60
57,61
57,62
57,63
57,64
57,65
57,66
58,67
59,67
60,67
61,67
62,67
63,67
64,67
65,67
66,67
67,73
68,72
69,72
70,72
71,73
72,78
72,80
73,74
74,75
74,76
75,77
76,81
77,78
78,79
79,81
80,81
81,82
81,84
81,85
82,83
83,86
84,86
85,86
86,87
87,88
87,89

<setup times forward>
1,30:1
2,30:1
3,30:1
4,7:2
4,8:1
4,9:2
4,30:1
5,7:2
5,8:1
5,9:2
5,11:1
5,12:1
5,13:1
5,30:1
6,7:2
6,8:1
6,9:2
6,11:1
6,30:1
7,5:2
7,6:2
7,8:3
7,10:2
7,11:1
7,12:1
7,30:1
8,5:1
8,6:1
8,7:3
8,9:3
8,10:1
8,11:2
8,12:2
8,13:2
8,14:2
8,15:2
8,16:1
8,17:2
8,30:2
9,5:2
9,6:2
9,8:3
9,10:2
9,11:1
9,12:1
9,13:1
9,14:1
9,15:1
9,16:2
9,17:1
9,18:3
9,30:1
10,7:2
10,8:1
10,9:2
10,11:1
10,12:1
10,13:1
10,14:1
10,30:1
11,5:1
11,7:1
11,8:2
11,9:1
11,10:1
12,5:1
12,8:2
12,9:1
12,10:1
13,5:1
13,8:2
13,9:1
13,10:1
14,8:2
14,9:1
14,16:1
15,8:2
15,9:1
15,16:1
16,8:1
16,9:2
16,15:1
16,17:1
16,18:1
16,19:1
16,21:1
16,22:1
16,23:2
16,26:2
16,28:2
16,29:2
16,30:1
16,31:2
16,33:1
16,34:1
16,35:1
16,36:2
16,37:2
16,38:2
16,39:2
16,40:2
16,41:2
16,42:2
16,43:2
16,44:2
16,45:2
16,47:1
16,48:2
16,49:1
16,50:2
16,51:2
16,52:2
16,53:1
16,54:1
16,68:1
16,69:2
16,80:2
17,8:2
17,9:1
17,16:1
17,18:2
18,16:1
18,20:1
18,30:2
19,16:1
19,20:1
19,28:3
19,30:2
19,55:3
19,56:1
19,57:1
19,58:1
19,59:3
19,60:1
19,61:1
19,62:1
19,63:3
19,64:2
19,66:3
19,67:3
20,19:1
20,21:1
20,22:1
20,23:2
20,26:2
20,28:2
20,30:1
21,16:1
21,23:3
21,24:1
21,25:1
21,26:1
21,27:1
21,28:3
21,29:1
21,30:2
21,31:1
21,32:1
21,33:2
21,34:2
21,35:2
21,36:3
21,37:3
21,38:1
21,39:1
21,40:3
21,41:3
21,42:1
21,43:1
21,44:3
21,45:3
21,46:1
21,47:2
21,48:1
21,49:2
21,50:3
21,51:3
21,52:3
21,69:3
21,70:1
21,71:1
21,72:1
21,80:1
22,16:1
22,20:1
22,23:3
22,28:3
22,30:2
22,55:3
22,56:1
22,57:1
22,58:1
22,59:3
22,60:1
22,61:1
22,62:1
22,63:3
22,64:2
22,66:3
22,67:3
23,16:2
23,20:2
23,21:3
23,24:2
23,30:1
23,54:3
23,56:2
23,57:2
23,58:4
23,60:2
23,61:2
23,62:4
23,64:1
23,65:3
24,21:1
24,28:2
24,30:1
24,54:1
24,55:2
24,58:2
24,59:2
24,62:2
24,63:2
24,64:1
24,65:1
24,66:2
24,67:2
25,21:1
25,26:2
25,28:2
25,29:2
25,30:1
25,54:1
25,55:2
25,58:2
25,59:2
25,62:2
25,63:2
25,64:1
25,65:1
25,66:2
25,67:2
26,16:2
26,20:2
26,21:1
26,27:2
26,28:4
26,30:3
26,32:2
26,33:3
26,34:3
26,35:3
26,36:4
26,37:4
26,54:1
26,55:4
26,56:2
26,57:2
26,59:4
26,60:2
26,61:2
26,63:4
26,64:3
26,65:1
26,66:4
26,67:4
27,21:1
27,26:2
27,28:2
27,29:2
27,30:1
27,31:2
27,33:1
27,54:1
27,55:2
27,58:2
27,59:2
27,62:2
27,63:2
27,64:1
27,65:1
27,66:2
27,67:2
28,16:2
28,19:3
28,21:3
28,22:3
28,24:2
28,25:2
28,26:4
28,27:2
28,29:4
28,30:1
28,54:3
28,56:2
28,57:2
28,58:4
28,60:2
28,61:2
28,62:4
28,64:1
28,65:3
29,16:2
29,21:1
29,27:2
29,30:3
29,54:1
29,55:4
29,56:2
29,57:2
29,59:4
29,60:2
29,61:2
29,63:4
29,64:3
29,65:1
29,66:4
29,67:4
30,1:1
30,2:1
30,3:1
30,4:1
30,5:1
30,6:1
30,7:1
30,8:2
30,9:1
30,10:1
30,16:1
30,18:2
30,19:2
30,20:1
30,21:2
30,22:2
30,23:1
30,24:1
30,25:1
30,26:3
30,27:1
30,28:1
30,29:3
30,31:3
30,32:1
30,36:1
30,37:1
30,38:3
30,39:3
30,40:1
30,41:1
30,42:3
30,43:3
30,44:1
30,45:1
30,46:1
30,48:3
30,50:1
30,51:1
30,52:1
30,53:2
30,54:2
30,68:2
30,69:1
30,70:1
30,71:1
30,72:1
30,80:3
31,16:2
31,21:1
31,27:2
31,30:3
31,32:2
31,54:1
31,55:4
31,56:2
31,57:2
31,59:4
31,60:2
31,61:2
31,63:4
31,64:3
31,65:1
31,66:4
31,67:4
32,21:1
32,26:2
32,30:1
32,33:1
32,54:1
32,55:2
32,58:2
32,59:2
32,62:2
32,63:2
32,64:1
32,65:1
32,66:2
32,67:2
33,16:1
33,21:2
33,26:3
33,54:2
33,55:1
33,56:1
33,57:1
33,58:3
33,59:1
33,60:1
33,61:1
33,62:3
33,63:1
33,65:2
33,66:1
33,67:1
34,16:1
34,21:2
34,26:3
34,54:2
34,55:1
34,56:1
34,57:1
34,58:3
34,59:1
34,60:1
34,61:1
34,62:3
34,63:1
34,65:2
34,66:1
34,67:1
35,16:1
35,21:2
35,26:3
35,36:1
35,37:1
35,54:2
35,55:1
35,56:1
35,57:1
35,58:3
35,59:1
35,60:1
35,61:1
35,62:3
35,63:1
35,65:2
35,66:1
35,67:1
36,16:2
36,21:3
36,26:4
36,30:1
36,38:4
36,54:3
36,56:2
36,57:2
36,58:4
36,60:2
36,61:2
36,62:4
36,64:1
36,65:3
37,16:2
37,21:3
37,30:1
37,38:4
37,54:3
37,56:2
37,57:2
37,58:4
37,60:2
37,61:2
37,62:4
37,64:1
37,65:3
38,16:2
38,21:1
38,30:3
38,54:1
38,55:4
38,56:2
38,57:2
38,59:4
38,60:2
38,61:2
38,63:4
38,64:3
38,65:1
38,66:4
38,67:4
39,16:2
39,21:1
39,30:3
39,40:4
39,41:4
39,54:1
39,55:4
39,56:2
39,57:2
39,59:4
39,60:2
39,61:2
39,63:4
39,64:3
39,65:1
39,66:4
39,67:4
40,16:2
40,21:3
40,30:1
40,42:4
40,43:4
40,46:2
40,47:1
40,48:4
40,49:1
40,54:3
40,56:2
40,57:2
40,58:4
40,60:2
40,61:2
40,62:4
40,64:1
40,65:3
41,16:2
41,21:3
41,30:1
41,42:4
41,43:4
41,46:2
41,47:1
41,48:4
41,49:1
41,53:3
41,54:3
41,56:2
41,57:2
41,58:4
41,60:2
41,61:2
41,62:4
41,64:1
41,65:3
42,16:2
42,21:1
42,30:3
42,40:4
42,41:4
42,44:4
42,45:4
42,46:2
42,47:3
42,49:3
42,50:4
42,51:4
42,52:4
42,53:1
42,54:1
42,55:4
42,56:2
42,57:2
42,59:4
42,60:2
42,61:2
42,63:4
42,64:3
42,65:1
42,66:4
42,67:4
43,16:2
43,21:1
43,30:3
43,40:4
43,41:4
43,44:4
43,45:4
43,54:1
43,55:4
43,56:2
43,57:2
43,59:4
43,60:2
43,61:2
43,63:4
43,64:3
43,65:1
43,66:4
43,67:4
44,16:2
44,21:3
44,30:1
44,42:4
44,43:4
44,46:2
44,47:1
44,48:4
44,49:1
44,54:3
44,56:2
44,57:2
44,58:4
44,60:2
44,61:2
44,62:4
44,64:1
44,65:3
45,16:2
45,21:3
45,30:1
45,42:4
45,46:2
45,54:3
45,56:2
45,57:2
45,58:4
45,60:2
45,61:2
45,62:4
45,64:1
45,65:3
46,21:1
46,30:1
46,40:2
46,41:2
46,42:2
46,44:2
46,47:1
46,54:1
46,55:2
46,58:2
46,59:2
46,62:2
46,63:2
46,64:1
46,65:1
46,66:2
46,67:2
47,16:1
47,21:2
47,40:1
47,41:1
47,42:3
47,44:1
47,48:3
47,54:2
47,55:1
47,56:1
47,57:1
47,58:3
47,59:1
47,60:1
47,61:1
47,62:3
47,63:1
47,65:2
47,66:1
47,67:1
48,16:2
48,21:1
48,30:3
48,40:4
48,41:4
48,44:4
48,49:3
48,50:4
48,51:4
48,52:4
48,53:1
48,54:1
48,55:4
48,56:2
48,57:2
48,59:4
48,60:2
48,61:2
48,63:4
48,64:3
48,65:1
48,66:4
48,67:4
48,68:1
48,69:4
48,70:2
48,71:2
48,72:2
48,73:2
48,74:2
48,75:2
48,77:2
48,79:3
48,81:3
48,84:3
48,87:2
48,88:2
48,89:4
49,16:1
49,21:2
49,40:1
49,41:1
49,42:3
49,44:1
49,48:3
49,50:1
49,54:2
49,55:1
49,56:1
49,57:1
49,58:3
49,59:1
49,60:1
49,61:1
49,62:3
49,63:1
49,65:2
49,66:1
49,67:1
50,16:2
50,21:3
50,30:1
50,42:4
50,48:4
50,54:3
50,56:2
50,57:2
50,58:4
50,60:2
50,61:2
50,62:4
50,64:1
50,65:3
51,16:2
51,21:3
51,30:1
51,42:4
51,48:4
51,54:3
51,56:2
51,57:2
51,58:4
51,60:2
51,61:2
51,62:4
51,64:1
51,65:3
52,16:2
52,21:3
52,30:1
52,42:4
52,48:4
52,53:3
52,54:3
52,56:2
52,57:2
52,58:4
52,60:2
52,61:2
52,62:4
52,64:1
52,65:3
53,16:1
53,30:2
53,48:1
53,55:3
53,56:1
53,57:1
53,58:1
53,59:3
53,60:1
53,61:1
53,62:1
53,63:3
53,64:2
53,66:3
53,67:3
53,69:3
53,70:1
53,71:1
54,23:3
54,24:1
54,25:1
54,26:1
54,27:1
54,28:3
54,29:1
54,31:1
54,32:1
54,33:2
54,34:2
54,35:2
54,36:3
54,37:3
54,38:1
54,39:1
54,40:3
54,41:3
54,42:1
54,43:1
54,44:3
54,45:3
54,46:1
54,47:2
54,48:1
54,49:2
54,50:3
54,51:3
54,52:3
54,55:3
54,69:3
54,70:1
54,71:1
54,72:1
54,80:1
55,19:3
55,22:3
55,24:2
55,25:2
55,26:4
55,27:2
55,29:4
55,31:4
55,32:2
55,33:1
55,34:1
55,35:1
55,38:4
55,39:4
55,42:4
55,43:4
55,46:2
55,47:1
55,48:4
55,49:1
55,53:3
55,56:2
55,68:3
55,70:2
55,71:2
55,72:2
55,80:4
56,19:1
56,22:1
56,23:2
56,26:2
56,28:2
56,29:2
56,31:2
56,33:1
56,34:1
56,35:1
56,36:2
56,37:2
56,38:2
56,39:2
56,40:2
56,41:2
56,42:2
56,43:2
56,44:2
56,45:2
56,47:1
56,48:2
56,49:1
56,50:2
56,51:2
56,52:2
56,53:1
56,68:1
56,69:2
56,80:2
57,19:1
57,22:1
57,23:2
57,26:2
57,28:2
57,29:2
57,31:2
57,33:1
57,34:1
57,35:1
57,36:2
57,37:2
57,38:2
57,39:2
57,40:2
57,41:2
57,42:2
57,43:2
57,44:2
57,45:2
57,47:1
57,48:2
57,49:1
57,50:2
57,51:2
57,52:2
57,53:1
57,58:2
57,59:2
57,62:2
57,63:2
57,64:1
57,65:1
57,66:2
57,68:1
57,69:2
57,80:2
58,19:1
58,22:1
58,23:4
58,24:2
58,25:2
58,27:2
58,28:4
58,32:2
58,33:3
58,34:3
58,35:3
58,36:4
58,37:4
58,40:4
58,41:4
58,44:4
58,45:4
58,46:2
58,47:3
58,49:3
58,50:4
58,51:4
58,52:4
58,53:1
58,59:4
58,60:2
58,61:2
58,63:4
58,64:3
58,65:1
58,66:4
58,67:4
58,68:1
58,69:4
58,70:2
58,71:2
58,72:2
59,19:3
59,22:3
59,24:2
59,25:2
59,26:4
59,27:2
59,29:4
59,31:4
59,32:2
59,33:1
59,34:1
59,35:1
59,38:4
59,39:4
59,42:4
59,43:4
59,46:2
59,47:1
59,48:4
59,49:1
59,53:3
59,58:4
59,60:2
59,61:2
59,62:4
59,64:1
59,65:3
59,68:3
59,70:2
59,71:2
59,72:2
59,80:4
60,19:1
60,22:1
60,23:2
60,26:2
60,28:2
60,29:2
60,31:2
60,33:1
60,34:1
60,35:1
60,36:2
60,37:2
60,38:2
60,39:2
60,40:2
60,41:2
60,42:2
60,43:2
60,44:2
60,45:2
60,47:1
60,48:2
60,49:1
60,50:2
60,51:2
60,52:2
60,53:1
60,58:2
60,59:2
60,62:2
60,63:2
60,64:1
60,65:1
60,66:2
60,67:2
60,68:1
60,69:2
60,80:2
61,19:1
61,22:1
61,23:2
61,26:2
61,28:2
61,29:2
61,31:2
61,33:1
61,34:1
61,35:1
61,36:2
61,37:2
61,38:2
61,39:2
61,40:2
61,41:2
61,42:2
61,43:2
61,44:2
61,45:2
61,47:1
61,48:2
61,49:1
61,50:2
61,51:2
61,52:2
61,53:1
61,58:2
61,59:2
61,62:2
61,63:2
61,64:1
61,65:1
61,66:2
61,67:2
61,68:1
61,69:2
61,80:2
62,19:1
62,22:1
62,23:4
62,24:2
62,25:2
62,27:2
62,28:4
62,32:2
62,33:3
62,34:3
62,35:3
62,36:4
62,37:4
62,40:4
62,41:4
62,44:4
62,45:4
62,46:2
62,47:3
62,49:3
62,50:4
62,51:4
62,52:4
62,53:1
62,59:4
62,60:2
62,61:2
62,63:4
62,64:3
62,65:1
62,66:4
62,67:4
62,68:1
62,69:4
62,70:2
62,71:2
62,72:2
63,19:3
63,22:3
63,24:2
63,25:2
63,26:4
63,27:2
63,29:4
63,31:4
63,32:2
63,33:1
63,34:1
63,35:1
63,38:4
63,39:4
63,42:4
63,43:4
63,46:2
63,47:1
63,48:4
63,49:1
63,53:3
63,58:4
63,60:2
63,61:2
63,62:4
63,64:1
63,65:3
63,68:3
63,70:2
63,71:2
63,72:2
63,80:4
64,19:2
64,22:2
64,23:1
64,24:1
64,25:1
64,26:3
64,27:1
64,28:1
64,29:3
64,31:3
64,32:1
64,36:1
64,37:1
64,38:3
64,39:3
64,40:1
64,41:1
64,42:3
64,43:3
64,44:1
64,45:1
64,46:1
64,48:3
64,50:1
64,51:1
64,52:1
64,53:2
64,58:3
64,59:1
64,60:1
64,61:1
64,62:3
64,63:1
64,65:2
64,66:1
64,67:1
64,68:2
64,69:1
64,70:1
64,71:1
64,72:1
64,80:3
65,23:3
65,24:1
65,25:1
65,26:1
65,27:1
65,28:3
65,29:1
65,31:1
65,32:1
65,33:2
65,34:2
65,35:2
65,36:3
65,37:3
65,38:1
65,39:1
65,40:3
65,41:3
65,42:1
65,43:1
65,44:3
65,45:3
65,46:1
65,47:2
65,48:1
65,49:2
65,50:3
65,51:3
65,52:3
65,58:1
65,59:3
65,60:1
65,61:1
65,62:1
65,63:3
65,64:2
65,66:3
65,67:3
65,69:3
65,70:1
65,71:1
65,72:1
65,80:1
66,19:3
66,22:3
66,24:2
66,25:2
66,26:4
66,27:2
66,29:4
66,31:4
66,32:2
66,33:1
66,34:1
66,35:1
66,38:4
66,39:4
66,42:4
66,43:4
66,46:2
66,47:1
66,48:4
66,49:1
66,53:3
66,58:4
66,60:2
66,61:2
66,62:4
66,64:1
66,65:3
66,68:3
66,70:2
66,71:2
66,72:2
66,80:4
67,19:3
67,22:3
67,24:2
67,25:2
67,26:4
67,27:2
67,29:4
67,31:4
67,32:2
67,33:1
67,34:1
67,35:1
67,38:4
67,39:4
67,42:4
67,43:4
67,46:2
67,47:1
67,48:4
67,49:1
67,53:3
67,68:3
67,70:2
67,71:2
67,72:2
67,73:2
67,80:4
68,16:1
68,30:2
68,48:1
68,55:3
68,56:1
68,57:1
68,58:1
68,59:3
68,60:1
68,61:1
68,62:1
68,63:3
68,64:2
68,66:3
68,67:3
68,69:3
68,70:1
68,71:1
68,72:1
68,73:1
68,74:1
68,75:1
68,76:1
68,77:1
69,16:2
69,21:3
69,30:1
69,48:4
69,54:3
69,56:2
69,57:2
69,58:4
69,60:2
69,61:2
69,62:4
69,64:1
69,65:3
69,68:3
69,70:2
69,71:2
69,72:2
69,73:2
69,74:2
69,75:2
69,76:4
69,77:2
70,21:1
70,30:1
70,48:2
70,54:1
70,55:2
70,58:2
70,59:2
70,62:2
70,63:2
70,64:1
70,65:1
70,66:2
70,67:2
70,68:1
70,69:2
70,76:2
71,21:1
71,30:1
71,48:2
71,54:1
71,55:2
71,58:2
71,59:2
71,62:2
71,63:2
71,64:1
71,65:1
71,66:2
71,67:2
71,68:1
71,69:2
71,80:2
72,21:1
72,30:1
72,48:2
72,54:1
72,55:2
72,58:2
72,59:2
72,62:2
72,63:2
72,64:1
72,65:1
72,66:2
72,67:2
72,76:2
72,78:2
72,80:2
73,48:2
73,68:1
73,69:2
73,80:2
74,48:2
74,68:1
74,69:2
74,76:2
74,80:2
75,48:2
75,68:1
75,69:2
75,76:2
75,80:2
76,68:1
76,69:4
76,70:2
76,72:2
76,75:2
76,77:2
76,79:3
76,81:3
77,48:2
77,68:1
77,69:2
77,76:2
77,78:2
77,80:2
78,79:3
79,48:3
79,76:3
79,80:3
80,16:2
80,21:1
80,30:3
80,54:1
80,55:4
80,56:2
80,57:2
80,59:4
80,60:2
80,61:2
80,63:4
80,64:3
80,65:1
80,66:4
80,67:4
80,71:2
80,73:2
80,74:2
80,75:2
80,77:2
80,79:3
80,81:3
81,48:3
81,82:3
81,85:3
82,84:3
83,84:3
84,48:3
84,82:3
84,83:3
84,85:3
84,86:3
85,84:3
86,87:2
87,48:2
87,89:2
88,48:2
88,89:2
89,48:4
89,88:2

<setup times backward>
5,8:1
6,8:1
7,1:2
7,2:2
7,3:2
7,4:2
7,5:2
7,6:2
7,8:3
7,10:2
7,11:1
7,30:1
9,1:2
9,2:2
9,3:2
9,4:2
9,5:2
9,6:2
9,8:3
9,10:2
9,11:1
9,12:1
9,13:1
9,14:1
9,15:1
9,16:2
9,17:1
9,30:1
10,8:1
11,1:1
11,2:1
11,3:1
11,4:1
11,5:1
11,6:1
11,8:2
11,10:1
12,1:1
12,2:1
12,3:1
12,4:1
12,5:1
12,6:1
12,8:2
12,10:1
13,1:1
13,2:1
13,3:1
13,4:1
13,5:1
13,6:1
13,8:2
13,10:1
14,1:1
14,2:1
14,3:1
14,4:1
14,5:1
14,6:1
14,8:2
14,10:1
15,1:1
15,2:1
15,3:1
15,4:1
15,5:1
15,6:1
15,8:2
15,10:1
15,16:1
16,8:1
16,18:1
16,19:1
16,21:1
16,22:1
16,26:2
16,29:2
16,31:2
16,38:2
16,39:2
16,42:2
16,43:2
16,48:2
16,53:1
16,68:1
16,80:2
17,1:1
17,2:1
17,3:1
17,4:1
17,5:1
17,6:1
17,8:2
17,10:1
17,16:1
19,58:1
19,62:1
20,8:1
20,18:1
20,19:1
20,22:1
20,26:2
21,26:1
21,29:1
21,31:1
21,38:1
21,39:1
21,42:1
21,43:1
21,48:1
21,80:1
22,58:1
22,62:1
23,1:2
23,2:2
23,3:2
23,4:2
23,5:2
23,6:2
23,8:3
23,10:2
23,11:1
23,12:1
23,13:1
23,14:1
23,15:1
23,16:2
23,17:1
23,18:3
23,19:3
23,20:2
23,21:3
23,22:3
23,30:1
23,54:3
23,56:2
23,57:2
23,58:4
23,60:2
23,61:2
23,62:4
23,64:1
23,65:3
24,8:1
24,18:1
24,19:1
24,21:1
24,22:1
24,54:1
24,58:2
24,62:2
24,65:1
25,8:1
25,18:1
25,19:1
25,21:1
25,22:1
25,54:1
25,58:2
25,62:2
25,65:1
27,8:1
27,18:1
27,19:1
27,21:1
27,22:1
27,26:2
27,29:2
27,31:2
27,54:1
27,58:2
27,62:2
27,65:1
28,1:2
28,2:2
28,3:2
28,4:2
28,5:2
28,6:2
28,8:3
28,10:2
28,11:1
28,12:1
28,13:1
28,14:1
28,15:1
28,16:2
28,17:1
28,18:3
28,19:3
28,20:2
28,21:3
28,22:3
28,24:2
28,25:2
28,26:4
28,27:2
28,30:1
28,54:3
28,56:2
28,57:2
28,58:4
28,60:2
28,61:2
28,62:4
28,64:1
28,65:3
30,1:1
30,2:1
30,3:1
30,4:1
30,5:1
30,6:1
30,8:2
30,10:1
30,16:1
30,18:2
30,19:2
30,20:1
30,21:2
30,22:2
30,24:1
30,25:1
30,26:3
30,27:1
30,29:3
30,31:3
30,32:1
30,38:3
30,39:3
30,42:3
30,43:3
30,46:1
30,48:3
30,53:2
30,68:2
30,70:1
30,71:1
30,72:1
30,80:3
32,8:1
32,18:1
32,19:1
32,21:1
32,22:1
32,26:2
32,29:2
32,31:2
32,54:1
32,58:2
32,62:2
32,65:1
33,1:1
33,2:1
33,3:1
33,4:1
33,5:1
33,6:1
33,8:2
33,10:1
33,16:1
33,18:2
33,19:2
33,20:1
33,21:2
33,22:2
33,24:1
33,25:1
33,26:3
33,27:1
33,29:3
33,31:3
33,32:1
33,54:2
33,56:1
33,57:1
33,58:3
33,60:1
33,61:1
33,62:3
33,65:2
34,1:1
34,2:1
34,3:1
34,4:1
34,5:1
34,6:1
34,8:2
34,10:1
34,16:1
34,18:2
34,19:2
34,20:1
34,21:2
34,22:2
34,24:1
34,25:1
34,26:3
34,27:1
34,29:3
34,31:3
34,32:1
34,54:2
34,56:1
34,57:1
34,58:3
34,60:1
34,61:1
34,62:3
34,65:2
35,1:1
35,2:1
35,3:1
35,4:1
35,5:1
35,6:1
35,8:2
35,10:1
35,16:1
35,18:2
35,19:2
35,20:1
35,21:2
35,22:2
35,24:1
35,25:1
35,26:3
35,27:1
35,29:3
35,31:3
35,32:1
35,54:2
35,56:1
35,57:1
35,58:3
35,60:1
35,61:1
35,62:3
35,65:2
36,1:2
36,2:2
36,3:2
36,4:2
36,5:2
36,6:2
36,8:3
36,10:2
36,11:1
36,12:1
36,13:1
36,14:1
36,15:1
36,16:2
36,17:1
36,18:3
36,19:3
36,20:2
36,21:3
36,22:3
36,24:2
36,25:2
36,26:4
36,27:2
36,29:4
36,30:1
36,31:4
36,32:2
36,33:1
36,34:1
36,35:1
36,54:3
36,56:2
36,57:2
36,58:4
36,60:2
36,61:2
36,62:4
36,64:1
36,65:3
37,1:2
37,2:2
37,3:2
37,4:2
37,5:2
37,6:2
37,8:3
37,10:2
37,11:1
37,12:1
37,13:1
37,14:1
37,15:1
37,16:2
37,17:1
37,18:3
37,19:3
37,20:2
37,21:3
37,22:3
37,24:2
37,25:2
37,26:4
37,27:2
37,29:4
37,30:1
37,31:4
37,32:2
37,33:1
37,34:1
37,35:1
37,54:3
37,56:2
37,57:2
37,58:4
37,60:2
37,61:2
37,62:4
37,64:1
37,65:3
40,1:2
40,2:2
40,3:2
40,4:2
40,5:2
40,6:2
40,8:3
40,10:2
40,11:1
40,12:1
40,13:1
40,14:1
40,15:1
40,16:2
40,17:1
40,18:3
40,19:3
40,20:2
40,21:3
40,22:3
40,24:2
40,25:2
40,26:4
40,27:2
40,29:4
40,30:1
40,31:4
40,32:2
40,33:1
40,34:1
40,35:1
40,38:4
40,39:4
40,42:4
40,43:4
40,46:2
40,47:1
40,48:4
40,49:1
40,54:3
40,56:2
40,57:2
40,58:4
40,60:2
40,61:2
40,62:4
40,64:1
40,65:3
41,1:2
41,2:2
41,3:2
41,4:2
41,5:2
41,6:2
41,8:3
41,10:2
41,11:1
41,12:1
41,13:1
41,14:1
41,15:1
41,16:2
41,17:1
41,18:3
41,19:3
41,20:2
41,21:3
41,22:3
41,24:2
41,25:2
41,26:4
41,27:2
41,29:4
41,30:1
41,31:4
41,32:2
41,33:1
41,34:1
41,35:1
41,38:4
41,39:4
41,42:4
41,43:4
41,46:2
41,47:1
41,48:4
41,49:1
41,54:3
41,56:2
41,57:2
41,58:4
41,60:2
41,61:2
41,62:4
41,64:1
41,65:3
44,1:2
44,2:2
44,3:2
44,4:2
44,5:2
44,6:2
44,8:3
44,10:2
44,11:1
44,12:1
44,13:1
44,14:1
44,15:1
44,16:2
44,17:1
44,18:3
44,19:3
44,20:2
44,21:3
44,22:3
44,24:2
44,25:2
44,26:4
44,27:2
44,29:4
44,30:1
44,31:4
44,32:2
44,33:1
44,34:1
44,35:1
44,38:4
44,39:4
44,42:4
44,43:4
44,46:2
44,47:1
44,48:4
44,49:1
44,54:3
44,56:2
44,57:2
44,58:4
44,60:2
44,61:2
44,62:4
44,64:1
44,65:3
45,1:2
45,2:2
45,3:2
45,4:2
45,5:2
45,6:2
45,8:3
45,10:2
45,11:1
45,12:1
45,13:1
45,14:1
45,15:1
45,16:2
45,17:1
45,18:3
45,19:3
45,20:2
45,21:3
45,22:3
45,24:2
45,25:2
45,26:4
45,27:2
45,29:4
45,30:1
45,31:4
45,32:2
45,33:1
45,34:1
45,35:1
45,38:4
45,39:4
45,42:4
45,43:4
45,54:3
45,56:2
45,57:2
45,58:4
45,60:2
45,61:2
45,62:4
45,64:1
45,65:3
46,8:1
46,18:1
46,19:1
46,21:1
46,22:1
46,26:2
46,29:2
46,31:2
46,38:2
46,39:2
46,42:2
46,43:2
46,54:1
46,58:2
46,62:2
46,65:1
47,1:1
47,2:1
47,3:1
47,4:1
47,5:1
47,6:1
47,8:2
47,10:1
47,16:1
47,18:2
47,19:2
47,20:1
47,21:2
47,22:2
47,24:1
47,25:1
47,26:3
47,27:1
47,29:3
47,31:3
47,32:1
47,38:3
47,39:3
47,42:3
47,43:3
47,46:1
47,54:2
47,56:1
47,57:1
47,58:3
47,60:1
47,61:1
47,62:3
47,65:2
49,1:1
49,2:1
49,3:1
49,4:1
49,5:1
49,6:1
49,8:2
49,10:1
49,16:1
49,18:2
49,19:2
49,20:1
49,21:2
49,22:2
49,24:1
49,25:1
49,26:3
49,27:1
49,29:3
49,31:3
49,32:1
49,38:3
49,39:3
49,42:3
49,43:3
49,46:1
49,48:3
49,54:2
49,56:1
49,57:1
49,58:3
49,60:1
49,61:1
49,62:3
49,65:2
50,1:2
50,2:2
50,3:2
50,4:2
50,5:2
50,6:2
50,8:3
50,10:2
50,11:1
50,12:1
50,13:1
50,14:1
50,15:1
50,16:2
50,17:1
50,18:3
50,19:3
50,20:2
50,21:3
50,22:3
50,24:2
50,25:2
50,26:4
50,27:2
50,29:4
50,30:1
50,31:4
50,32:2
50,33:1
50,34:1
50,35:1
50,38:4
50,39:4
50,42:4
50,43:4
50,46:2
50,47:1
50,48:4
50,49:1
50,54:3
50,56:2
50,57:2
50,58:4
50,60:2
50,61:2
50,62:4
50,64:1
50,65:3
51,1:2
51,2:2
51,3:2
51,4:2
51,5:2
51,6:2
51,8:3
51,10:2
51,11:1
51,12:1
51,13:1
51,14:1
51,15:1
51,16:2
51,17:1
51,18:3
51,19:3
51,20:2
51,21:3
51,22:3
51,24:2
51,25:2
51,26:4
51,27:2
51,29:4
51,30:1
51,31:4
51,32:2
51,33:1
51,34:1
51,35:1
51,38:4
51,39:4
51,42:4
51,43:4
51,46:2
51,47:1
51,48:4
51,49:1
51,54:3
51,56:2
51,57:2
51,58:4
51,60:2
51,61:2
51,62:4
51,64:1
51,65:3
52,1:2
52,2:2
52,3:2
52,4:2
52,5:2
52,6:2
52,8:3
52,10:2
52,11:1
52,12:1
52,13:1
52,14:1
52,15:1
52,16:2
52,17:1
52,18:3
52,19:3
52,20:2
52,21:3
52,22:3
52,24:2
52,25:2
52,26:4
52,27:2
52,29:4
52,30:1
52,31:4
52,32:2
52,33:1
52,34:1
52,35:1
52,38:4
52,39:4
52,42:4
52,43:4
52,46:2
52,47:1
52,48:4
52,49:1
52,54:3
52,56:2
52,57:2
52,58:4
52,60:2
52,61:2
52,62:4
52,64:1
52,65:3
53,26:1
53,29:1
53,31:1
53,38:1
53,39:1
53,42:1
53,43:1
53,48:1
53,58:1
53,62:1
54,26:1
54,29:1
54,31:1
54,38:1
54,39:1
54,42:1
54,43:1
54,48:1
54,80:1
55,1:2
55,2:2
55,3:2
55,4:2
55,5:2
55,6:2
55,8:3
55,10:2
55,11:1
55,12:1
55,13:1
55,14:1
55,15:1
55,16:2
55,17:1
55,18:3
55,19:3
55,20:2
55,21:3
55,22:3
55,24:2
55,25:2
55,26:4
55,27:2
55,29:4
55,30:1
55,31:4
55,32:2
55,33:1
55,34:1
55,35:1
55,38:4
55,39:4
55,42:4
55,43:4
55,46:2
55,47:1
55,48:4
55,49:1
55,53:3
55,54:3
55,68:3
55,70:2
55,71:2
55,72:2
55,80:4
56,8:1
56,18:1
56,19:1
56,21:1
56,22:1
56,26:2
56,29:2
56,31:2
56,38:2
56,39:2
56,42:2
56,43:2
56,48:2
56,53:1
56,54:1
56,68:1
56,80:2
57,8:1
57,18:1
57,19:1
57,21:1
57,22:1
57,26:2
57,29:2
57,31:2
57,38:2
57,39:2
57,42:2
57,43:2
57,48:2
57,53:1
57,54:1
57,68:1
57,80:2
59,1:2
59,2:2
59,3:2
59,4:2
59,5:2
59,6:2
59,8:3
59,10:2
59,11:1
59,12:1
59,13:1
59,14:1
59,15:1
59,16:2
59,17:1
59,18:3
59,19:3
59,20:2
59,21:3
59,22:3
59,24:2
59,25:2
59,26:4
59,27:2
59,29:4
59,30:1
59,31:4
59,32:2
59,33:1
59,34:1
59,35:1
59,38:4
59,39:4
59,42:4
59,43:4
59,46:2
59,47:1
59,48:4
59,49:1
59,53:3
59,54:3
59,56:2
59,57:2
59,58:4
59,60:2
59,61:2
59,62:4
59,64:1
59,65:3
59,68:3
59,70:2
59,71:2
59,72:2
59,80:4
60,8:1
60,18:1
60,19:1
60,21:1
60,22:1
60,26:2
60,29:2
60,31:2
60,38:2
60,39:2
60,42:2
60,43:2
60,48:2
60,53:1
60,54:1
60,58:2
60,62:2
60,65:1
60,68:1
60,80:2
61,8:1
61,18:1
61,19:1
61,21:1
61,22:1
61,26:2
61,29:2
61,31:2
61,38:2
61,39:2
61,42:2
61,43:2
61,48:2
61,53:1
61,54:1
61,58:2
61,62:2
61,65:1
61,68:1
61,80:2
63,1:2
63,2:2
63,3:2
63,4:2
63,5:2
63,6:2
63,8:3
63,10:2
63,11:1
63,12:1
63,13:1
63,14:1
63,15:1
63,16:2
63,17:1
63,18:3
63,19:3
63,20:2
63,21:3
63,22:3
63,24:2
63,25:2
63,26:4
63,27:2
63,29:4
63,30:1
63,31:4
63,32:2
63,33:1
63,34:1
63,35:1
63,38:4
63,39:4
63,42:4
63,43:4
63,46:2
63,47:1
63,48:4
63,49:1
63,53:3
63,54:3
63,56:2
63,57:2
63,58:4
63,60:2
63,61:2
63,62:4
63,64:1
63,65:3
63,68:3
63,70:2
63,71:2
63,72:2
63,80:4
64,1:1
64,2:1
64,3:1
64,4:1
64,5:1
64,6:1
64,8:2
64,10:1
64,16:1
64,18:2
64,19:2
64,20:1
64,21:2
64,22:2
64,24:1
64,25:1
64,26:3
64,27:1
64,29:3
64,31:3
64,32:1
64,38:3
64,39:3
64,42:3
64,43:3
64,46:1
64,48:3
64,53:2
64,54:2
64,56:1
64,57:1
64,58:3
64,60:1
64,61:1
64,62:3
64,65:2
64,68:2
64,70:1
64,71:1
64,72:1
64,80:3
65,26:1
65,29:1
65,31:1
65,38:1
65,39:1
65,42:1
65,43:1
65,48:1
65,58:1
65,62:1
65,80:1
66,1:2
66,2:2
66,3:2
66,4:2
66,5:2
66,6:2
66,8:3
66,10:2
66,11:1
66,12:1
66,13:1
66,14:1
66,15:1
66,16:2
66,17:1
66,18:3
66,19:3
66,20:2
66,21:3
66,22:3
66,24:2
66,25:2
66,26:4
66,27:2
66,29:4
66,30:1
66,31:4
66,32:2
66,33:1
66,34:1
66,35:1
66,38:4
66,39:4
66,42:4
66,43:4
66,46:2
66,47:1
66,48:4
66,49:1
66,53:3
66,54:3
66,56:2
66,57:2
66,58:4
66,60:2
66,61:2
66,62:4
66,64:1
66,65:3
66,68:3
66,70:2
66,71:2
66,72:2
66,80:4
67,1:2
67,2:2
67,3:2
67,4:2
67,5:2
67,6:2
67,8:3
67,10:2
67,11:1
67,12:1
67,13:1
67,14:1
67,15:1
67,16:2
67,17:1
67,18:3
67,19:3
67,20:2
67,21:3
67,22:3
67,24:2
67,25:2
67,26:4
67,27:2
67,29:4
67,30:1
67,31:4
67,32:2
67,33:1
67,34:1
67,35:1
67,38:4
67,39:4
67,42:4
67,43:4
67,46:2
67,47:1
67,48:4
67,49:1
67,53:3
67,54:3
67,56:2
67,57:2
67,58:4
67,60:2
67,61:2
67,62:4
67,64:1
67,65:3
67,68:3
67,70:2
67,71:2
67,72:2
67,80:4
68,26:1
68,29:1
68,31:1
68,38:1
68,39:1
68,42:1
68,43:1
68,48:1
68,58:1
68,62:1
68,76:1
69,1:2
69,2:2
69,3:2
69,4:2
69,5:2
69,6:2
69,8:3
69,10:2
69,11:1
69,12:1
69,13:1
69,14:1
69,15:1
69,16:2
69,17:1
69,18:3
69,19:3
69,20:2
69,21:3
69,22:3
69,24:2
69,25:2
69,26:4
69,27:2
69,29:4
69,30:1
69,31:4
69,32:2
69,33:1
69,34:1
69,35:1
69,38:4
69,39:4
69,42:4
69,43:4
69,46:2
69,47:1
69,48:4
69,49:1
69,53:3
69,54:3
69,56:2
69,57:2
69,58:4
69,60:2
69,61:2
69,62:4
69,64:1
69,65:3
69,68:3
69,70:2
69,71:2
69,73:2
69,74:2
69,75:2
69,76:4
69,77:2
70,8:1
70,18:1
70,19:1
70,21:1
70,22:1
70,26:2
70,29:2
70,31:2
70,38:2
70,39:2
70,42:2
70,43:2
70,48:2
70,53:1
70,54:1
70,58:2
70,62:2
70,65:1
70,68:1
70,76:2
71,8:1
71,18:1
71,19:1
71,21:1
71,22:1
71,26:2
71,29:2
71,31:2
71,38:2
71,39:2
71,42:2
71,43:2
71,48:2
71,53:1
71,54:1
71,58:2
71,62:2
71,65:1
71,68:1
71,80:2
72,8:1
72,18:1
72,19:1
72,21:1
72,22:1
72,26:2
72,29:2
72,31:2
72,38:2
72,39:2
72,42:2
72,43:2
72,48:2
72,53:1
72,54:1
72,58:2
72,62:2
72,65:1
72,68:1
72,76:2
73,8:1
73,18:1
73,19:1
73,21:1
73,22:1
73,26:2
73,29:2
73,31:2
73,38:2
73,39:2
73,42:2
73,43:2
73,48:2
73,53:1
73,54:1
73,58:2
73,62:2
73,65:1
73,68:1
73,80:2
74,8:1
74,18:1
74,19:1
74,21:1
74,22:1
74,26:2
74,29:2
74,31:2
74,38:2
74,39:2
74,42:2
74,43:2
74,48:2
74,53:1
74,54:1
74,58:2
74,62:2
74,65:1
74,68:1
74,80:2
75,8:1
75,18:1
75,19:1
75,21:1
75,22:1
75,26:2
75,29:2
75,31:2
75,38:2
75,39:2
75,42:2
75,43:2
75,48:2
75,53:1
75,54:1
75,58:2
75,62:2
75,65:1
75,68:1
75,76:2
75,80:2
77,8:1
77,18:1
77,19:1
77,21:1
77,22:1
77,26:2
77,29:2
77,31:2
77,38:2
77,39:2
77,42:2
77,43:2
77,48:2
77,53:1
77,54:1
77,58:2
77,62:2
77,65:1
77,68:1
77,76:2
77,80:2
79,1:1
79,2:1
79,3:1
79,4:1
79,5:1
79,6:1
79,8:2
79,10:1
79,16:1
79,18:2
79,19:2
79,20:1
79,21:2
79,22:2
79,24:1
79,25:1
79,26:3
79,27:1
79,29:3
79,31:3
79,32:1
79,38:3
79,39:3
79,42:3
79,43:3
79,46:1
79,48:3
79,53:2
79,54:2
79,56:1
79,57:1
79,58:3
79,60:1
79,61:1
79,62:3
79,65:2
79,68:2
79,70:1
79,71:1
79,72:1
79,73:1
79,74:1
79,75:1
79,76:3
79,77:1
79,78:3
79,80:3
81,1:1
81,2:1
81,3:1
81,4:1
81,5:1
81,6:1
81,8:2
81,10:1
81,16:1
81,18:2
81,19:2
81,20:1
81,21:2
81,22:2
81,24:1
81,25:1
81,26:3
81,27:1
81,29:3
81,31:3
81,32:1
81,38:3
81,39:3
81,42:3
81,43:3
81,46:1
81,48:3
81,53:2
81,54:2
81,56:1
81,57:1
81,58:3
81,60:1
81,61:1
81,62:3
81,65:2
81,68:2
81,70:1
81,71:1
81,72:1
81,73:1
81,74:1
81,75:1
81,76:3
81,77:1
81,78:3
81,80:3
84,1:1
84,2:1
84,3:1
84,4:1
84,5:1
84,6:1
84,8:2
84,10:1
84,16:1
84,18:2
84,19:2
84,20:1
84,21:2
84,22:2
84,24:1
84,25:1
84,26:3
84,27:1
84,29:3
84,31:3
84,32:1
84,38:3
84,39:3
84,42:3
84,43:3
84,46:1
84,48:3
84,53:2
84,54:2
84,56:1
84,57:1
84,58:3
84,60:1
84,61:1
84,62:3
84,65:2
84,68:2
84,70:1
84,71:1
84,72:1
84,73:1
84,74:1
84,75:1
84,76:3
84,77:1
84,78:3
84,80:3
84,82:3
84,83:3
84,85:3
87,8:1
87,18:1
87,19:1
87,21:1
87,22:1
87,26:2
87,29:2
87,31:2
87,38:2
87,39:2
87,42:2
87,43:2
87,48:2
87,53:1
87,54:1
87,58:2
87,62:2
87,65:1
87,68:1
87,76:2
87,78:2
87,80:2
87,82:2
87,83:2
87,85:2
87,86:2
88,8:1
88,18:1
88,19:1
88,21:1
88,22:1
88,26:2
88,29:2
88,31:2
88,38:2
88,39:2
88,42:2
88,43:2
88,48:2
88,53:1
88,54:1
88,58:2
88,62:2
88,65:1
88,68:1
88,76:2
88,78:2
88,80:2
88,82:2
88,83:2
88,85:2
88,86:2
89,1:2
89,2:2
89,3:2
89,4:2
89,5:2
89,6:2
89,8:3
89,10:2
89,11:1
89,12:1
89,13:1
89,14:1
89,15:1
89,16:2
89,17:1
89,18:3
89,19:3
89,20:2
89,21:3
89,22:3
89,24:2
89,25:2
89,26:4
89,27:2
89,29:4
89,30:1
89,31:4
89,32:2
89,33:1
89,34:1
89,35:1
89,38:4
89,39:4
89,42:4
89,43:4
89,46:2
89,47:1
89,48:4
89,49:1
89,53:3
89,54:3
89,56:2
89,57:2
89,58:4
89,60:2
89,61:2
89,62:4
89,64:1
89,65:3
89,68:3
89,70:2
89,71:2
89,72:2
89,73:2
89,74:2
89,75:2
89,76:4
89,77:2
89,78:4
89,79:1
89,80:4
89,81:1
89,82:4
89,83:4
89,84:1
89,85:4
89,86:4
89,87:2
89,88:2

<end>

<optimal SALBP-1 value>
31


<rand seed>
467321153

